(set-info :source |printed by MathSAT|)
(declare-fun |.x{161}| () Int)
(declare-fun |.y{15}| () Int)
(declare-fun |.y{11}| () Int)
(declare-fun |.y{16}| () Int)
(declare-fun |.y{12}| () Int)
(declare-fun |.y{17}| () Int)
(declare-fun |.x{162}| () (Array Int Int))
(declare-fun |.y{18}| () (Array Int Int))
(declare-fun |.x{165}| () Int)
(declare-fun |.y{19}| () Int)
(declare-fun |.x{166}| () (Array Int Int))
(declare-fun |.y{20}| () (Array Int Int))
(declare-fun |.x{164}| () Int)
(declare-fun |.y{21}| () Int)
(declare-fun |.x{158}| () Int)
(declare-fun |.y{22}| () Int)
(declare-fun |.y{13}| () (Array Int Int))
(declare-fun |.y{23}| () (Array Int Int))
(declare-fun |.y{14}| () Int)
(declare-fun |.y{24}| () Int)
(declare-fun |.loc{4}| () Bool)
(declare-fun |.loc{7}| () Bool)
(declare-fun |.loc{5}| () Bool)
(declare-fun |.loc{8}| () Bool)
(declare-fun |.loc{6}| () Bool)
(declare-fun |.loc{9}| () Bool)
(declare-fun |.x{42}| () Int)
(declare-fun |.x{167}| () Int)
(declare-fun |.x{163}| () Int)
(define-fun .def_28 () Bool (! |.loc{4}| :next |.loc{7}|))
(define-fun .def_115 () Bool (not .def_28))
(define-fun .def_30 () Bool (! |.loc{5}| :next |.loc{8}|))
(define-fun .def_54 () Bool (not .def_30))
(define-fun .def_249 () Bool (and .def_54 .def_115))
(define-fun .def_32 () Bool (! |.loc{6}| :next |.loc{9}|))
(define-fun .def_247 () Bool (not .def_32))
(define-fun .def_250 () Bool (! (and .def_247 .def_249) :init true))
(define-fun .def_14 () (Array Int Int) (! |.x{162}| :next |.y{18}|))
(define-fun .def_189 () Int (select .def_14 |.x{163}|))
(define-fun .def_18 () (Array Int Int) (! |.x{166}| :next |.y{20}|))
(define-fun .def_188 () Int (select .def_18 |.x{167}|))
(define-fun .def_190 () Bool (= .def_188 .def_189))
(define-fun .def_228 () Bool (not .def_190))
(define-fun .def_75 () Int (* (- 1) |.x{163}|))
(define-fun .def_20 () Int (! |.x{164}| :next |.y{21}|))
(define-fun .def_149 () Int (+ .def_20 .def_75))
(define-fun .def_8 () Int (! |.x{161}| :next |.y{15}|))
(define-fun .def_185 () Int (+ .def_8 .def_149))
(define-fun .def_186 () Bool (= .def_185 0))
(define-fun .def_16 () Int (! |.x{165}| :next |.y{19}|))
(define-fun .def_36 () Bool (<= .def_16 0))
(define-fun .def_37 () Bool (not .def_36))
(define-fun .def_187 () Bool (and .def_37 .def_186))
(define-fun .def_229 () Bool (and .def_187 .def_228))
(define-fun .def_230 () Bool (and |.loc{9}| .def_229))
(define-fun .def_90 () Int (* (- 1) |.x{167}|))
(define-fun .def_160 () Int (+ .def_20 .def_90))
(define-fun .def_195 () Int (+ .def_16 .def_160))
(define-fun .def_196 () Bool (= .def_195 0))
(define-fun .def_231 () Bool (and .def_196 .def_230))
(define-fun .def_125 () Bool (not |.loc{7}|))
(define-fun .def_232 () Bool (and .def_125 .def_231))
(define-fun .def_52 () Bool (not |.loc{8}|))
(define-fun .def_233 () Bool (and .def_52 .def_232))
(define-fun .def_22 () Int (! |.x{158}| :next |.y{22}|))
(define-fun .def_199 () Bool (<= .def_22 .def_20))
(define-fun .def_200 () Bool (not .def_199))
(define-fun .def_234 () Bool (and .def_200 .def_233))
(define-fun .def_235 () Bool (and .def_28 .def_234))
(define-fun .def_207 () Bool (<= .def_8 0))
(define-fun .def_82 () Bool (<= |.x{163}| 0))
(define-fun .def_83 () Bool (not .def_82))
(define-fun .def_208 () Bool (or .def_83 .def_207))
(define-fun .def_236 () Bool (and .def_208 .def_235))
(define-fun .def_237 () Bool (and .def_208 .def_236))
(define-fun .def_210 () Bool (not .def_207))
(define-fun .def_238 () Bool (and .def_210 .def_237))
(define-fun .def_97 () Bool (<= |.x{167}| 0))
(define-fun .def_98 () Bool (not .def_97))
(define-fun .def_99 () Bool (or .def_36 .def_98))
(define-fun .def_239 () Bool (and .def_99 .def_238))
(define-fun .def_24 () (Array Int Int) (! |.y{13}| :next |.y{23}|))
(define-fun .def_226 () Bool (= |.y{20}| .def_24))
(define-fun .def_224 () Bool (= |.y{19}| .def_22))
(define-fun .def_26 () Int (! |.y{14}| :next |.y{24}|))
(define-fun .def_215 () Bool (= |.y{22}| .def_26))
(define-fun .def_216 () Bool (and |.loc{7}| .def_215))
(define-fun .def_217 () Bool (and |.loc{8}| .def_216))
(define-fun .def_67 () Bool (not |.loc{9}|))
(define-fun .def_218 () Bool (and .def_67 .def_217))
(define-fun .def_219 () Bool (and .def_115 .def_218))
(define-fun .def_178 () Bool (= |.y{21}| 0))
(define-fun .def_220 () Bool (and .def_178 .def_219))
(define-fun .def_141 () Bool (<= .def_26 .def_20))
(define-fun .def_221 () Bool (and .def_141 .def_220))
(define-fun .def_88 () Bool (= .def_8 |.y{15}|))
(define-fun .def_222 () Bool (and .def_88 .def_221))
(define-fun .def_158 () Bool (= .def_14 |.y{18}|))
(define-fun .def_223 () Bool (and .def_158 .def_222))
(define-fun .def_225 () Bool (and .def_223 .def_224))
(define-fun .def_227 () Bool (and .def_225 .def_226))
(define-fun .def_240 () Bool (or .def_227 .def_239))
(define-fun .def_191 () Bool (and .def_187 .def_190))
(define-fun .def_192 () Bool (and |.loc{7}| .def_191))
(define-fun .def_193 () Bool (and |.loc{8}| .def_192))
(define-fun .def_197 () Bool (and .def_193 .def_196))
(define-fun .def_127 () Int (* (- 1) |.y{21}|))
(define-fun .def_128 () Int (+ .def_20 .def_127))
(define-fun .def_129 () Bool (= .def_128 (- 1)))
(define-fun .def_198 () Bool (and .def_129 .def_197))
(define-fun .def_201 () Bool (and .def_198 .def_200))
(define-fun .def_65 () Bool (= .def_16 |.y{19}|))
(define-fun .def_202 () Bool (and .def_65 .def_201))
(define-fun .def_203 () Bool (and .def_67 .def_202))
(define-fun .def_139 () Bool (= .def_18 |.y{20}|))
(define-fun .def_204 () Bool (and .def_139 .def_203))
(define-fun .def_69 () Bool (= .def_22 |.y{22}|))
(define-fun .def_205 () Bool (and .def_69 .def_204))
(define-fun .def_206 () Bool (and .def_28 .def_205))
(define-fun .def_209 () Bool (and .def_206 .def_208))
(define-fun .def_211 () Bool (and .def_209 .def_210))
(define-fun .def_212 () Bool (and .def_88 .def_211))
(define-fun .def_213 () Bool (and .def_158 .def_212))
(define-fun .def_214 () Bool (and .def_99 .def_213))
(define-fun .def_241 () Bool (or .def_214 .def_240))
(define-fun .def_242 () Bool (and .def_30 .def_241))
(define-fun .def_182 () Bool (= .def_22 |.y{24}|))
(define-fun .def_180 () Bool (= .def_20 |.y{22}|))
(define-fun .def_10 () Int (! |.y{11}| :next |.y{16}|))
(define-fun .def_175 () Bool (= |.y{15}| .def_10))
(define-fun .def_168 () Bool (and |.loc{8}| .def_125))
(define-fun .def_169 () Bool (and .def_54 .def_168))
(define-fun .def_170 () Bool (and .def_65 .def_169))
(define-fun .def_63 () Bool (= .def_24 |.y{23}|))
(define-fun .def_171 () Bool (and .def_63 .def_170))
(define-fun .def_12 () Int (! |.y{12}| :next |.y{17}|))
(define-fun .def_60 () Bool (<= .def_22 .def_12))
(define-fun .def_172 () Bool (and .def_60 .def_171))
(define-fun .def_173 () Bool (and .def_67 .def_172))
(define-fun .def_174 () Bool (and .def_139 .def_173))
(define-fun .def_176 () Bool (and .def_174 .def_175))
(define-fun .def_177 () Bool (and .def_28 .def_176))
(define-fun .def_179 () Bool (and .def_177 .def_178))
(define-fun .def_181 () Bool (and .def_179 .def_180))
(define-fun .def_183 () Bool (and .def_181 .def_182))
(define-fun .def_184 () Bool (and .def_158 .def_183))
(define-fun .def_243 () Bool (or .def_184 .def_242))
(define-fun .def_121 () Bool (<= .def_22 0))
(define-fun .def_166 () Bool (or .def_98 .def_121))
(define-fun .def_162 () Int (+ .def_22 .def_90))
(define-fun .def_163 () Int (+ .def_20 .def_162))
(define-fun .def_164 () Bool (= .def_163 0))
(define-fun .def_154 () Bool (or .def_36 .def_83))
(define-fun .def_150 () Int (+ .def_16 .def_149))
(define-fun .def_151 () Bool (= .def_150 0))
(define-fun .def_142 () Bool (not .def_141))
(define-fun .def_134 () Int (select .def_18 |.x{163}|))
(define-fun .def_135 () (Array Int Int) (store .def_24 |.x{167}| .def_134))
(define-fun .def_136 () Bool (= |.y{23}| .def_135))
(define-fun .def_131 () Bool (= .def_26 |.y{24}|))
(define-fun .def_122 () Bool (not .def_121))
(define-fun .def_123 () Bool (and .def_37 .def_122))
(define-fun .def_124 () Bool (and |.loc{8}| .def_123))
(define-fun .def_126 () Bool (and .def_124 .def_125))
(define-fun .def_130 () Bool (and .def_126 .def_129))
(define-fun .def_132 () Bool (and .def_130 .def_131))
(define-fun .def_133 () Bool (and .def_65 .def_132))
(define-fun .def_137 () Bool (and .def_133 .def_136))
(define-fun .def_138 () Bool (and .def_67 .def_137))
(define-fun .def_140 () Bool (and .def_138 .def_139))
(define-fun .def_143 () Bool (and .def_140 .def_142))
(define-fun .def_144 () Bool (and .def_69 .def_143))
(define-fun .def_152 () Bool (and .def_144 .def_151))
(define-fun .def_153 () Bool (and .def_115 .def_152))
(define-fun .def_155 () Bool (and .def_153 .def_154))
(define-fun .def_156 () Bool (and .def_30 .def_155))
(define-fun .def_157 () Bool (and .def_88 .def_156))
(define-fun .def_159 () Bool (and .def_157 .def_158))
(define-fun .def_165 () Bool (and .def_159 .def_164))
(define-fun .def_167 () Bool (and .def_165 .def_166))
(define-fun .def_244 () Bool (or .def_167 .def_243))
(define-fun .def_117 () Bool (<= |.y{21}| 0))
(define-fun .def_118 () Bool (not .def_117))
(define-fun .def_112 () Bool (<= |.y{19}| 0))
(define-fun .def_113 () Bool (not .def_112))
(define-fun .def_108 () Bool (<= |.y{22}| 0))
(define-fun .def_109 () Bool (not .def_108))
(define-fun .def_105 () Bool (<= |.y{16}| 0))
(define-fun .def_106 () Bool (not .def_105))
(define-fun .def_101 () Bool (= |.y{17}| 0))
(define-fun .def_102 () Bool (and |.loc{7}| .def_101))
(define-fun .def_103 () Bool (and .def_52 .def_102))
(define-fun .def_104 () Bool (and .def_54 .def_103))
(define-fun .def_107 () Bool (and .def_104 .def_106))
(define-fun .def_110 () Bool (and .def_107 .def_109))
(define-fun .def_111 () Bool (and .def_67 .def_110))
(define-fun .def_114 () Bool (and .def_111 .def_113))
(define-fun .def_116 () Bool (and .def_114 .def_115))
(define-fun .def_119 () Bool (and .def_116 .def_118))
(define-fun .def_120 () Bool (and .def_88 .def_119))
(define-fun .def_245 () Bool (or .def_120 .def_244))
(define-fun .def_93 () Int (+ .def_16 .def_90))
(define-fun .def_94 () Int (+ .def_12 .def_93))
(define-fun .def_95 () Bool (= .def_94 0))
(define-fun .def_81 () Bool (<= .def_10 0))
(define-fun .def_86 () Bool (not .def_81))
(define-fun .def_84 () Bool (or .def_81 .def_83))
(define-fun .def_76 () Int (+ .def_12 .def_75))
(define-fun .def_77 () Int (+ .def_10 .def_76))
(define-fun .def_78 () Bool (= .def_77 0))
(define-fun .def_61 () Bool (not .def_60))
(define-fun .def_57 () (Array Int Int) (store .def_14 |.x{163}| |.x{42}|))
(define-fun .def_58 () Bool (= |.y{18}| .def_57))
(define-fun .def_49 () (Array Int Int) (store .def_18 |.x{167}| |.x{42}|))
(define-fun .def_50 () Bool (= |.y{20}| .def_49))
(define-fun .def_45 () Bool (= .def_20 |.y{21}|))
(define-fun .def_41 () Int (* (- 1) |.y{17}|))
(define-fun .def_42 () Int (+ .def_12 .def_41))
(define-fun .def_43 () Bool (= .def_42 (- 1)))
(define-fun .def_34 () Bool (= .def_10 |.y{16}|))
(define-fun .def_38 () Bool (and .def_34 .def_37))
(define-fun .def_39 () Bool (and |.loc{7}| .def_38))
(define-fun .def_44 () Bool (and .def_39 .def_43))
(define-fun .def_46 () Bool (and .def_44 .def_45))
(define-fun .def_51 () Bool (and .def_46 .def_50))
(define-fun .def_53 () Bool (and .def_51 .def_52))
(define-fun .def_55 () Bool (and .def_53 .def_54))
(define-fun .def_59 () Bool (and .def_55 .def_58))
(define-fun .def_62 () Bool (and .def_59 .def_61))
(define-fun .def_64 () Bool (and .def_62 .def_63))
(define-fun .def_66 () Bool (and .def_64 .def_65))
(define-fun .def_68 () Bool (and .def_66 .def_67))
(define-fun .def_70 () Bool (and .def_68 .def_69))
(define-fun .def_79 () Bool (and .def_70 .def_78))
(define-fun .def_80 () Bool (and .def_28 .def_79))
(define-fun .def_85 () Bool (and .def_80 .def_84))
(define-fun .def_87 () Bool (and .def_85 .def_86))
(define-fun .def_89 () Bool (and .def_87 .def_88))
(define-fun .def_96 () Bool (and .def_89 .def_95))
(define-fun .def_100 () Bool (and .def_96 .def_99))
(define-fun .def_246 () Bool (or .def_100 .def_245))
(define-fun .def_248 () Bool (! (and .def_246 .def_247) :trans true))
(define-fun .def_251 () Bool (and .def_32 .def_249))
(define-fun .def_252 () Bool (! (not .def_251) :invar-property 0))
(assert true)
